c This is UnifRandomKSATGenerator
c uniform random 3-SAT generated instance with: 
c clause length: 3 
c number variables: 20 
c number clauses: 85 
c clause to variable ratio: 4.27 
c random number generator name: SHA1PRNG 
c random number generator provider: SUN 
c random number generator seed: 1026316107075529509 
p cnf 20 85
1 17 15 0
-9 8 -11 0
-1 -3 10 0
16 3 -5 0
-1 11 20 0
11 13 7 0
-11 14 -16 0
19 -13 -5 0
18 -20 14 0
-17 4 6 0
-10 -18 -14 0
-11 -12 20 0
-17 -12 -6 0
-13 4 7 0
10 -14 15 0
-11 -4 -8 0
-18 2 13 0
-4 3 -13 0
-2 -18 -20 0
-10 2 11 0
-17 -12 6 0
-10 -12 5 0
16 -2 -8 0
-9 -16 -8 0
9 -12 7 0
-17 -11 -4 0
-1 2 -12 0
-17 -20 -6 0
16 -9 13 0
11 20 -14 0
-10 2 -5 0
-10 3 11 0
-1 10 -12 0
-1 -4 11 0
-1 -4 13 0
1 20 -7 0
-2 1 -13 0
8 -20 19 0
-2 -13 4 0
1 2 3 0
-19 11 -14 0
17 10 5 0
9 1 -20 0
8 3 -7 0
18 3 -15 0
16 -1 7 0
18 -11 -14 0
-9 20 -13 0
-18 11 6 0
-2 -11 -4 0
16 -19 4 0
10 18 -12 0
2 10 -12 0
-10 -18 6 0
17 2 -16 0
-2 10 6 0
18 -20 -6 0
-18 -10 13 0
16 10 14 0
17 -19 13 0
-9 -18 -2 0
3 -12 5 0
2 -5 -16 0
-9 -10 -6 0
5 6 -7 0
18 -6 15 0
17 19 -5 0
-1 18 -14 0
18 -20 -13 0
-3 -4 -8 0
8 -18 20 0
4 6 -8 0
-11 12 6 0
9 -4 -12 0
8 -2 14 0
8 -10 -11 0
-10 15 -8 0
16 -20 13 0
17 -19 15 0
16 20 14 0
-17 -3 -13 0
9 17 -14 0
-9 1 -15 0
-17 3 15 0
-3 -12 6 0
